tr-tsp/TR2_8.tsp
NAME: TR2_8 (8 Cities of Aegean of Turkey)
COMMENT: Akbudak, I., Karagul, K., Gunduz, G., Tokat, S. (2016)
TYPE : TSP
DIMENSION: 8
EDGE_WEIGHT_TYPE: GEO
NODE_COORD_SECTION
1 27.1428260000000  38.4237340000000
2 27.4295624000000  38.6140337000000
3 27.8455601000000  37.8380162000000
4 29.0963328000000  37.7830159000000
5 29.9857320000000  39.4199547000000
6 30.5387038000000  38.7568852000000
7 29.4058825000000  38.6742286000000
8 28.3633940000000  37.2153740000000
EOF



